smart_table_proofs/random_table_4vars_55.opb
* #variable= 44 #constraint= 159
* variable iv0_x0 -1 .. 4 bits encoding
-8 iv0_x0_bn_3 1 iv0_x0_b_0 2 iv0_x0_b_1 4 iv0_x0_b_2 >= -1 ;
8 iv0_x0_bn_3 -1 iv0_x0_b_0 -2 iv0_x0_b_1 -4 iv0_x0_b_2 >= -4 ;
-8 iv0_x0_bn_3 1 iv0_x0_b_0 2 iv0_x0_b_1 4 iv0_x0_b_2 7 ~iv0_ge_-1 >= -1 ;
8 iv0_x0_bn_3 -1 iv0_x0_b_0 -2 iv0_x0_b_1 -4 iv0_x0_b_2 9 iv0_ge_-1 >= 2 ;
1 iv0_ge_-1 >= 1 ;
-8 iv0_x0_bn_3 1 iv0_x0_b_0 2 iv0_x0_b_1 4 iv0_x0_b_2 8 ~iv0_ge_0 >= 0 ;
8 iv0_x0_bn_3 -1 iv0_x0_b_0 -2 iv0_x0_b_1 -4 iv0_x0_b_2 8 iv0_ge_0 >= 1 ;
-1 iv0_ge_0 1 iv0_ge_-1 >= 0 ;
1 iv0_ge_-1 1 ~iv0_ge_0 2 ~iv0_eq_-1 >= 2 ;
-1 iv0_ge_-1 -1 ~iv0_ge_0 1 iv0_eq_-1 >= -1 ;
-8 iv0_x0_bn_3 1 iv0_x0_b_0 2 iv0_x0_b_1 4 iv0_x0_b_2 9 ~iv0_ge_1 >= 1 ;
8 iv0_x0_bn_3 -1 iv0_x0_b_0 -2 iv0_x0_b_1 -4 iv0_x0_b_2 7 iv0_ge_1 >= 0 ;
-1 iv0_ge_1 1 iv0_ge_0 >= 0 ;
1 iv0_ge_0 1 ~iv0_ge_1 2 ~iv0_eq_0 >= 2 ;
-1 iv0_ge_0 -1 ~iv0_ge_1 1 iv0_eq_0 >= -1 ;
-8 iv0_x0_bn_3 1 iv0_x0_b_0 2 iv0_x0_b_1 4 iv0_x0_b_2 10 ~iv0_ge_2 >= 2 ;
8 iv0_x0_bn_3 -1 iv0_x0_b_0 -2 iv0_x0_b_1 -4 iv0_x0_b_2 6 iv0_ge_2 >= -1 ;
-1 iv0_ge_2 1 iv0_ge_1 >= 0 ;
1 iv0_ge_1 1 ~iv0_ge_2 2 ~iv0_eq_1 >= 2 ;
-1 iv0_ge_1 -1 ~iv0_ge_2 1 iv0_eq_1 >= -1 ;
-8 iv0_x0_bn_3 1 iv0_x0_b_0 2 iv0_x0_b_1 4 iv0_x0_b_2 11 ~iv0_ge_3 >= 3 ;
8 iv0_x0_bn_3 -1 iv0_x0_b_0 -2 iv0_x0_b_1 -4 iv0_x0_b_2 5 iv0_ge_3 >= -2 ;
-1 iv0_ge_3 1 iv0_ge_2 >= 0 ;
1 iv0_ge_2 1 ~iv0_ge_3 2 ~iv0_eq_2 >= 2 ;
-1 iv0_ge_2 -1 ~iv0_ge_3 1 iv0_eq_2 >= -1 ;
-8 iv0_x0_bn_3 1 iv0_x0_b_0 2 iv0_x0_b_1 4 iv0_x0_b_2 12 ~iv0_ge_4 >= 4 ;
8 iv0_x0_bn_3 -1 iv0_x0_b_0 -2 iv0_x0_b_1 -4 iv0_x0_b_2 4 iv0_ge_4 >= -3 ;
-1 iv0_ge_4 1 iv0_ge_3 >= 0 ;
1 iv0_ge_3 1 ~iv0_ge_4 2 ~iv0_eq_3 >= 2 ;
-1 iv0_ge_3 -1 ~iv0_ge_4 1 iv0_eq_3 >= -1 ;
-8 iv0_x0_bn_3 1 iv0_x0_b_0 2 iv0_x0_b_1 4 iv0_x0_b_2 13 ~iv0_ge_5 >= 5 ;
8 iv0_x0_bn_3 -1 iv0_x0_b_0 -2 iv0_x0_b_1 -4 iv0_x0_b_2 3 iv0_ge_5 >= -4 ;
1 ~iv0_ge_5 >= 1 ;
-1 iv0_ge_5 1 iv0_ge_4 >= 0 ;
1 iv0_ge_4 1 ~iv0_ge_5 2 ~iv0_eq_4 >= 2 ;
-1 iv0_ge_4 -1 ~iv0_ge_5 1 iv0_eq_4 >= -1 ;
* variable iv1_x1 -1 .. 4 bits encoding
-8 iv1_x1_bn_3 1 iv1_x1_b_0 2 iv1_x1_b_1 4 iv1_x1_b_2 >= -1 ;
8 iv1_x1_bn_3 -1 iv1_x1_b_0 -2 iv1_x1_b_1 -4 iv1_x1_b_2 >= -4 ;
-8 iv1_x1_bn_3 1 iv1_x1_b_0 2 iv1_x1_b_1 4 iv1_x1_b_2 7 ~iv1_ge_-1 >= -1 ;
8 iv1_x1_bn_3 -1 iv1_x1_b_0 -2 iv1_x1_b_1 -4 iv1_x1_b_2 9 iv1_ge_-1 >= 2 ;
1 iv1_ge_-1 >= 1 ;
-8 iv1_x1_bn_3 1 iv1_x1_b_0 2 iv1_x1_b_1 4 iv1_x1_b_2 8 ~iv1_ge_0 >= 0 ;
8 iv1_x1_bn_3 -1 iv1_x1_b_0 -2 iv1_x1_b_1 -4 iv1_x1_b_2 8 iv1_ge_0 >= 1 ;
-1 iv1_ge_0 1 iv1_ge_-1 >= 0 ;
1 iv1_ge_-1 1 ~iv1_ge_0 2 ~iv1_eq_-1 >= 2 ;
-1 iv1_ge_-1 -1 ~iv1_ge_0 1 iv1_eq_-1 >= -1 ;
-8 iv1_x1_bn_3 1 iv1_x1_b_0 2 iv1_x1_b_1 4 iv1_x1_b_2 9 ~iv1_ge_1 >= 1 ;
8 iv1_x1_bn_3 -1 iv1_x1_b_0 -2 iv1_x1_b_1 -4 iv1_x1_b_2 7 iv1_ge_1 >= 0 ;
-1 iv1_ge_1 1 iv1_ge_0 >= 0 ;
1 iv1_ge_0 1 ~iv1_ge_1 2 ~iv1_eq_0 >= 2 ;
-1 iv1_ge_0 -1 ~iv1_ge_1 1 iv1_eq_0 >= -1 ;
-8 iv1_x1_bn_3 1 iv1_x1_b_0 2 iv1_x1_b_1 4 iv1_x1_b_2 10 ~iv1_ge_2 >= 2 ;
8 iv1_x1_bn_3 -1 iv1_x1_b_0 -2 iv1_x1_b_1 -4 iv1_x1_b_2 6 iv1_ge_2 >= -1 ;
-1 iv1_ge_2 1 iv1_ge_1 >= 0 ;
1 iv1_ge_1 1 ~iv1_ge_2 2 ~iv1_eq_1 >= 2 ;
-1 iv1_ge_1 -1 ~iv1_ge_2 1 iv1_eq_1 >= -1 ;
-8 iv1_x1_bn_3 1 iv1_x1_b_0 2 iv1_x1_b_1 4 iv1_x1_b_2 11 ~iv1_ge_3 >= 3 ;
8 iv1_x1_bn_3 -1 iv1_x1_b_0 -2 iv1_x1_b_1 -4 iv1_x1_b_2 5 iv1_ge_3 >= -2 ;
-1 iv1_ge_3 1 iv1_ge_2 >= 0 ;
1 iv1_ge_2 1 ~iv1_ge_3 2 ~iv1_eq_2 >= 2 ;
-1 iv1_ge_2 -1 ~iv1_ge_3 1 iv1_eq_2 >= -1 ;
-8 iv1_x1_bn_3 1 iv1_x1_b_0 2 iv1_x1_b_1 4 iv1_x1_b_2 12 ~iv1_ge_4 >= 4 ;
8 iv1_x1_bn_3 -1 iv1_x1_b_0 -2 iv1_x1_b_1 -4 iv1_x1_b_2 4 iv1_ge_4 >= -3 ;
-1 iv1_ge_4 1 iv1_ge_3 >= 0 ;
1 iv1_ge_3 1 ~iv1_ge_4 2 ~iv1_eq_3 >= 2 ;
-1 iv1_ge_3 -1 ~iv1_ge_4 1 iv1_eq_3 >= -1 ;
-8 iv1_x1_bn_3 1 iv1_x1_b_0 2 iv1_x1_b_1 4 iv1_x1_b_2 13 ~iv1_ge_5 >= 5 ;
8 iv1_x1_bn_3 -1 iv1_x1_b_0 -2 iv1_x1_b_1 -4 iv1_x1_b_2 3 iv1_ge_5 >= -4 ;
1 ~iv1_ge_5 >= 1 ;
-1 iv1_ge_5 1 iv1_ge_4 >= 0 ;
1 iv1_ge_4 1 ~iv1_ge_5 2 ~iv1_eq_4 >= 2 ;
-1 iv1_ge_4 -1 ~iv1_ge_5 1 iv1_eq_4 >= -1 ;
* variable iv2_x2 -1 .. 4 bits encoding
-8 iv2_x2_bn_3 1 iv2_x2_b_0 2 iv2_x2_b_1 4 iv2_x2_b_2 >= -1 ;
8 iv2_x2_bn_3 -1 iv2_x2_b_0 -2 iv2_x2_b_1 -4 iv2_x2_b_2 >= -4 ;
-8 iv2_x2_bn_3 1 iv2_x2_b_0 2 iv2_x2_b_1 4 iv2_x2_b_2 7 ~iv2_ge_-1 >= -1 ;
8 iv2_x2_bn_3 -1 iv2_x2_b_0 -2 iv2_x2_b_1 -4 iv2_x2_b_2 9 iv2_ge_-1 >= 2 ;
1 iv2_ge_-1 >= 1 ;
-8 iv2_x2_bn_3 1 iv2_x2_b_0 2 iv2_x2_b_1 4 iv2_x2_b_2 8 ~iv2_ge_0 >= 0 ;
8 iv2_x2_bn_3 -1 iv2_x2_b_0 -2 iv2_x2_b_1 -4 iv2_x2_b_2 8 iv2_ge_0 >= 1 ;
-1 iv2_ge_0 1 iv2_ge_-1 >= 0 ;
1 iv2_ge_-1 1 ~iv2_ge_0 2 ~iv2_eq_-1 >= 2 ;
-1 iv2_ge_-1 -1 ~iv2_ge_0 1 iv2_eq_-1 >= -1 ;
-8 iv2_x2_bn_3 1 iv2_x2_b_0 2 iv2_x2_b_1 4 iv2_x2_b_2 9 ~iv2_ge_1 >= 1 ;
8 iv2_x2_bn_3 -1 iv2_x2_b_0 -2 iv2_x2_b_1 -4 iv2_x2_b_2 7 iv2_ge_1 >= 0 ;
-1 iv2_ge_1 1 iv2_ge_0 >= 0 ;
1 iv2_ge_0 1 ~iv2_ge_1 2 ~iv2_eq_0 >= 2 ;
-1 iv2_ge_0 -1 ~iv2_ge_1 1 iv2_eq_0 >= -1 ;
-8 iv2_x2_bn_3 1 iv2_x2_b_0 2 iv2_x2_b_1 4 iv2_x2_b_2 10 ~iv2_ge_2 >= 2 ;
8 iv2_x2_bn_3 -1 iv2_x2_b_0 -2 iv2_x2_b_1 -4 iv2_x2_b_2 6 iv2_ge_2 >= -1 ;
-1 iv2_ge_2 1 iv2_ge_1 >= 0 ;
1 iv2_ge_1 1 ~iv2_ge_2 2 ~iv2_eq_1 >= 2 ;
-1 iv2_ge_1 -1 ~iv2_ge_2 1 iv2_eq_1 >= -1 ;
-8 iv2_x2_bn_3 1 iv2_x2_b_0 2 iv2_x2_b_1 4 iv2_x2_b_2 11 ~iv2_ge_3 >= 3 ;
8 iv2_x2_bn_3 -1 iv2_x2_b_0 -2 iv2_x2_b_1 -4 iv2_x2_b_2 5 iv2_ge_3 >= -2 ;
-1 iv2_ge_3 1 iv2_ge_2 >= 0 ;
1 iv2_ge_2 1 ~iv2_ge_3 2 ~iv2_eq_2 >= 2 ;
-1 iv2_ge_2 -1 ~iv2_ge_3 1 iv2_eq_2 >= -1 ;
-8 iv2_x2_bn_3 1 iv2_x2_b_0 2 iv2_x2_b_1 4 iv2_x2_b_2 12 ~iv2_ge_4 >= 4 ;
8 iv2_x2_bn_3 -1 iv2_x2_b_0 -2 iv2_x2_b_1 -4 iv2_x2_b_2 4 iv2_ge_4 >= -3 ;
-1 iv2_ge_4 1 iv2_ge_3 >= 0 ;
1 iv2_ge_3 1 ~iv2_ge_4 2 ~iv2_eq_3 >= 2 ;
-1 iv2_ge_3 -1 ~iv2_ge_4 1 iv2_eq_3 >= -1 ;
-8 iv2_x2_bn_3 1 iv2_x2_b_0 2 iv2_x2_b_1 4 iv2_x2_b_2 13 ~iv2_ge_5 >= 5 ;
8 iv2_x2_bn_3 -1 iv2_x2_b_0 -2 iv2_x2_b_1 -4 iv2_x2_b_2 3 iv2_ge_5 >= -4 ;
1 ~iv2_ge_5 >= 1 ;
-1 iv2_ge_5 1 iv2_ge_4 >= 0 ;
1 iv2_ge_4 1 ~iv2_ge_5 2 ~iv2_eq_4 >= 2 ;
-1 iv2_ge_4 -1 ~iv2_ge_5 1 iv2_eq_4 >= -1 ;
* variable iv3_x3 -1 .. 4 bits encoding
-8 iv3_x3_bn_3 1 iv3_x3_b_0 2 iv3_x3_b_1 4 iv3_x3_b_2 >= -1 ;
8 iv3_x3_bn_3 -1 iv3_x3_b_0 -2 iv3_x3_b_1 -4 iv3_x3_b_2 >= -4 ;
-8 iv3_x3_bn_3 1 iv3_x3_b_0 2 iv3_x3_b_1 4 iv3_x3_b_2 7 ~iv3_ge_-1 >= -1 ;
8 iv3_x3_bn_3 -1 iv3_x3_b_0 -2 iv3_x3_b_1 -4 iv3_x3_b_2 9 iv3_ge_-1 >= 2 ;
1 iv3_ge_-1 >= 1 ;
-8 iv3_x3_bn_3 1 iv3_x3_b_0 2 iv3_x3_b_1 4 iv3_x3_b_2 8 ~iv3_ge_0 >= 0 ;
8 iv3_x3_bn_3 -1 iv3_x3_b_0 -2 iv3_x3_b_1 -4 iv3_x3_b_2 8 iv3_ge_0 >= 1 ;
-1 iv3_ge_0 1 iv3_ge_-1 >= 0 ;
1 iv3_ge_-1 1 ~iv3_ge_0 2 ~iv3_eq_-1 >= 2 ;
-1 iv3_ge_-1 -1 ~iv3_ge_0 1 iv3_eq_-1 >= -1 ;
-8 iv3_x3_bn_3 1 iv3_x3_b_0 2 iv3_x3_b_1 4 iv3_x3_b_2 9 ~iv3_ge_1 >= 1 ;
8 iv3_x3_bn_3 -1 iv3_x3_b_0 -2 iv3_x3_b_1 -4 iv3_x3_b_2 7 iv3_ge_1 >= 0 ;
-1 iv3_ge_1 1 iv3_ge_0 >= 0 ;
1 iv3_ge_0 1 ~iv3_ge_1 2 ~iv3_eq_0 >= 2 ;
-1 iv3_ge_0 -1 ~iv3_ge_1 1 iv3_eq_0 >= -1 ;
-8 iv3_x3_bn_3 1 iv3_x3_b_0 2 iv3_x3_b_1 4 iv3_x3_b_2 10 ~iv3_ge_2 >= 2 ;
8 iv3_x3_bn_3 -1 iv3_x3_b_0 -2 iv3_x3_b_1 -4 iv3_x3_b_2 6 iv3_ge_2 >= -1 ;
-1 iv3_ge_2 1 iv3_ge_1 >= 0 ;
1 iv3_ge_1 1 ~iv3_ge_2 2 ~iv3_eq_1 >= 2 ;
-1 iv3_ge_1 -1 ~iv3_ge_2 1 iv3_eq_1 >= -1 ;
-8 iv3_x3_bn_3 1 iv3_x3_b_0 2 iv3_x3_b_1 4 iv3_x3_b_2 11 ~iv3_ge_3 >= 3 ;
8 iv3_x3_bn_3 -1 iv3_x3_b_0 -2 iv3_x3_b_1 -4 iv3_x3_b_2 5 iv3_ge_3 >= -2 ;
-1 iv3_ge_3 1 iv3_ge_2 >= 0 ;
1 iv3_ge_2 1 ~iv3_ge_3 2 ~iv3_eq_2 >= 2 ;
-1 iv3_ge_2 -1 ~iv3_ge_3 1 iv3_eq_2 >= -1 ;
-8 iv3_x3_bn_3 1 iv3_x3_b_0 2 iv3_x3_b_1 4 iv3_x3_b_2 12 ~iv3_ge_4 >= 4 ;
8 iv3_x3_bn_3 -1 iv3_x3_b_0 -2 iv3_x3_b_1 -4 iv3_x3_b_2 4 iv3_ge_4 >= -3 ;
-1 iv3_ge_4 1 iv3_ge_3 >= 0 ;
1 iv3_ge_3 1 ~iv3_ge_4 2 ~iv3_eq_3 >= 2 ;
-1 iv3_ge_3 -1 ~iv3_ge_4 1 iv3_eq_3 >= -1 ;
-8 iv3_x3_bn_3 1 iv3_x3_b_0 2 iv3_x3_b_1 4 iv3_x3_b_2 13 ~iv3_ge_5 >= 5 ;
8 iv3_x3_bn_3 -1 iv3_x3_b_0 -2 iv3_x3_b_1 -4 iv3_x3_b_2 3 iv3_ge_5 >= -4 ;
1 ~iv3_ge_5 >= 1 ;
-1 iv3_ge_5 1 iv3_ge_4 >= 0 ;
1 iv3_ge_4 1 ~iv3_ge_5 2 ~iv3_eq_4 >= 2 ;
-1 iv3_ge_4 -1 ~iv3_ge_5 1 iv3_eq_4 >= -1 ;
* constraint smart table
1 flag0_t0 1 flag1_t1 1 flag2_t2 >= 1 ;
-8 iv1_x1_bn_3 1 iv1_x1_b_0 2 iv1_x1_b_1 4 iv1_x1_b_2 8 iv2_x2_bn_3 -1 iv2_x2_b_0 -2 iv2_x2_b_1 -4 iv2_x2_b_2 16 ~flag3_bin_gt >= 1 ;
-8 iv2_x2_bn_3 1 iv2_x2_b_0 2 iv2_x2_b_1 4 iv2_x2_b_2 8 iv1_x1_bn_3 -1 iv1_x1_b_0 -2 iv1_x1_b_1 -4 iv1_x1_b_2 15 flag3_bin_gt >= 0 ;
1 ~iv2_eq_-1 1 ~iv2_eq_1 1 ~iv2_eq_2 1 ~iv2_eq_3 1 ~iv2_eq_4 5 ~flag4_inset >= 5 ;
1 ~iv2_eq_0 1 flag4_inset >= 1 ;
1 flag3_bin_gt 1 flag4_inset 1 ~iv1_ge_1 3 ~flag0_t0 >= 3 ;
-1 flag3_bin_gt -1 flag4_inset -1 ~iv1_ge_1 1 flag0_t0 >= -2 ;
1 ~iv2_eq_-1 1 ~iv2_eq_3 2 flag5_notinset >= 2 ;
1 ~iv2_eq_0 1 ~iv2_eq_2 1 ~iv2_eq_4 1 ~iv2_eq_1 4 ~flag5_notinset >= 4 ;
1 iv2_eq_2 1 ~iv0_ge_1 1 ~iv1_ge_2 1 flag5_notinset 1 ~iv3_eq_3 1 ~iv0_ge_0 6 ~flag1_t1 >= 6 ;
-1 iv2_eq_2 -1 ~iv0_ge_1 -1 ~iv1_ge_2 -1 flag5_notinset -1 ~iv3_eq_3 -1 ~iv0_ge_0 1 flag1_t1 >= -5 ;
1 ~iv0_eq_-1 1 ~iv0_eq_0 2 ~flag6_inset >= 2 ;
1 ~iv0_eq_2 1 ~iv0_eq_4 1 ~iv0_eq_3 1 ~iv0_eq_1 4 flag6_inset >= 4 ;
1 iv1_ge_1 1 flag6_inset 1 ~iv2_ge_0 1 ~iv1_eq_1 1 iv1_ge_3 1 iv2_ge_1 6 ~flag2_t2 >= 6 ;
-1 iv1_ge_1 -1 flag6_inset -1 ~iv2_ge_0 -1 ~iv1_eq_1 -1 iv1_ge_3 -1 iv2_ge_1 1 flag2_t2 >= -5 ;
