rup/random_table_4vars_55.rup
160:5 33 41 43 37 46 47 50 52 55 57 60 62 65 67 71 77 105 113 141 150 146 73 146
161:5 33 41 69 77 78 81 105 113 141 150 54 55 59 60 64 65 71 146 43 45 48 146
162:5 14 6 9 12 16 19 21 24 26 29 31 35 41 69 77 105 113 141 150 54 55 59 60 64 65 71 148 82 161
163:5 14 154
164:5 14 6 9 12 16 19 21 24 26 29 31 35 41 69 77 105 113 141 154 156 158
165:5 14 6 9 12 16 19 21 24 26 29 31 35 41 69 77 105 113 141 154 156 158 145 162
166:5 19 11 7 9 14 17 11 21 24 26 29 31 35 41 69 77 105 113 141 150 54 55 59 60 64 65 71 148 82 161
167:5 19 154
168:5 19 11 7 9 14 17 11 21 24 26 29 31 35 41 69 77 105 113 141 154 157 158 85
169:5 19 11 7 9 14 17 11 21 24 26 29 31 35 41 69 77 105 113 141 154 157 166 145 168
170:5 24 16 7 9 18 14 19 22 16 22 26 29 31 35 41 69 77 105 113 141 150 54 55 59 60 64 65 71 148 82 161
171:5 24 16 7 154
172:5 24 16 7 9 18 14 19 22 16 22 26 29 31 35 41 69 77 105 113 141 154 157 158 85
173:5 24 16 7 9 18 14 19 22 16 22 26 29 31 35 41 69 77 105 113 141 154 157 170 145 172
174:5 29 21 7 9 23 18 14 19 24 27 16 21 31 35 41 69 77 105 113 141 150 54 55 59 60 64 65 71 148 82 161
175:5 29 21 7 154
176:5 29 21 7 9 23 18 14 19 24 27 16 21 31 35 41 69 77 105 113 141 154 157 158 85
177:5 29 21 7 9 23 18 14 19 24 27 16 21 31 35 41 69 77 105 113 141 154 157 174 145 176
178:5 33 35 26 2 7 9 12 14 17 19 22 24 29 41 69 77 105 113 141 150 54 55 59 60 64 65 71 148 82 161
179:5 33 35 26 2 7 154
180:5 33 35 26 2 7 9 12 14 17 19 22 24 29 41 69 77 105 113 141 154 157 158 85
181:5 33 35 26 2 7 9 12 14 17 19 22 24 29 41 69 77 105 113 141 154 157 178 145 180
182:5 33 41 60 52 43 45 54 150
183:5 33 41 60 154
184:5 33 41 60 158
185:5 33 41 60 52 43 45 54 50 55 58 52 58 62 65 67 71 77 105 113 141 150 154 145 158
186:5 33 41 65 57 43 45 59 54 150
187:5 33 41 65 57 43 45 59 154
188:5 33 41 65 57 43 45 59 54 50 55 60 63 52 57 67 71 77 105 113 141 150 154 158 85
189:5 33 41 65 57 43 45 59 54 50 55 60 63 52 57 67 71 77 105 113 141 150 154 145 188
190:5 33 41 69 71 62 38 43 45 48 150
191:5 33 41 69 71 62 38 43 45 48 50 53 154
192:5 33 41 69 71 62 38 43 45 48 50 53 55 58 60 65 77 105 113 141 150 154 158 85
193:5 33 41 69 71 62 38 43 45 48 50 53 55 58 60 65 77 105 113 141 150 154 145 192
194:5 33 41 69 77 81 79 73 83 86 88 91 93 96 98 101 103 107 113 141 148 150
195:5 33 41 69 77 81 79 73 83 86 88 91 93 96 154
196:5 33 41 69 77 81 79 73 83 158
197:5 33 41 69 77 81 79 73 83 86 88 91 93 96 98 101 103 107 113 141 148 150 152 154 145 158
198:5 33 41 69 77 86 161
199:5 33 41 69 77 86 78 81 84 88 91 93 96 154
200:5 33 41 69 77 86 158
201:5 33 41 69 77 86 78 81 84 88 91 93 96 98 101 103 107 113 141 149 153 154 158 145 161
202:5 33 41 69 77 91 83 79 161
203:5 33 41 69 77 91 83 79 81 86 89 83 93 96 154
204:5 33 41 69 77 91 83 79 158
205:5 33 41 69 77 91 83 79 81 86 89 83 93 96 98 101 103 107 113 141 148 150 153 154 145 158
206:5 33 41 69 77 96 88 79 161
207:5 33 41 69 77 96 88 79 81 90 86 91 94 88 94 98 101 103 107 113 141 148 150 153 154
208:5 33 41 69 77 96 88 79 158
209:5 33 41 69 77 96 88 79 81 90 86 91 94 88 94 98 101 103 107 113 141 148 150 153 154 145 158
210:5 33 41 69 77 101 93 79 161
211:5 33 41 69 77 101 93 79 81 95 90 86 91 96 154
212:5 33 41 69 77 101 93 79 158
213:5 33 41 69 77 101 93 79 81 95 90 86 91 96 99 88 93 103 107 113 141 148 150 152 154 145 158
214:5 33 41 69 77 105 107 98 74 79 161
215:5 33 41 69 77 105 107 98 74 79 81 84 86 89 91 94 96 154
216:5 33 41 69 77 105 107 98 74 79 158
217:5 33 41 69 77 105 113 141 165 169 173 177 181 36 30 25 20 15 7 1 10 156 158 185 189 193 72 66 61 197 82 78 161 145 154 153
218:217
219:154
220:217
221:217
222:217
223:217
